instances/p2/p2_6_8-4.dzn
Alphabet = {A,C,G,T};
ns = 6;
nc = 5;
neighbours = [| I(G),I(C),Null,Null,Null | I(C),Null,Null,Null,Null | I(G),I(C),I(C),Null,Null | Null,Null,Null,Null,Null | I(T),I(C),I(A),I(A),Null | I(A),I(G),I(G),I(A),I(A) |];
