instances/p2/p2_6_8-4.txt
{
	"num_strings": 6,
	"alphabet": "ACGT",
	"strings": [
		"GC",
		"C",
		"GCC",
		"",
		"TCAA",
		"AGGAA"
	],
	"str_length":[2,1,3,0,4,5]
}